80 131 41 92 128 174 89 126 91 32 200 71 132 139 140 15 48 127 159 96 18 113 87 12 53 180 153 83 36 115 144 4 163 55 157 133 161 64 46 189 20 110 117 29 43 24 68 38 183 196 145 111 25 47 56 94 149 
168 187 154 116 198 81 169 79 65 167 34 3 191 
75 186 78 45 8 192 61 143 152 19 118 42 194 114 13 107 125 195 155 37 175 179 28 100 190 85 142 11 158 63 134 54 170 98 30 10 123 173 22 31 185 178 77 104 108 188 97 165 14 58 5 90 50 26 84 136 40 6 193 146 197 95 138 
182 62 147 103 59 51 172 120 35 177 199 88 150 67 99 181 151 27 122 112 57 124 73 176 164 23 16 160 156 2 109 135 105 166 70 33 148 86 1 171 72 49 129 60 102 
74 119 137 184 162 44 66 141 130 17 69 7 106 82 76 121 93 39 52 
21 9 101 

